20
1 0 7
2 0 12
2 1 15
3 0 10
3 1 11
3 2 1
4 0 11
4 1 19
4 2 15
4 3 4
5 0 12
5 1 22
5 2 13
5 3 19
5 4 27
6 0 5
6 1 17
6 2 1
6 3 8
6 4 14
6 5 6
7 0 9
7 1 1
7 2 12
7 3 24
7 4 5
7 5 1
7 6 5
8 0 16
8 1 9
8 2 24
8 3 2
8 4 6
8 5 8
8 6 28
8 7 16
9 0 23
9 1 23
9 2 6
9 3 19
9 4 5
9 5 26
9 6 22
9 7 19
9 8 17
10 0 23
10 1 16
10 2 9
10 3 7
10 4 26
10 5 4
10 6 11
10 7 20
10 8 23
10 9 13
11 0 22
11 1 26
11 2 24
11 3 18
11 4 19
11 5 11
11 6 20
11 7 2
11 8 3
11 9 28
11 10 3
12 0 20
12 1 19
12 2 22
12 3 14
12 4 12
12 5 7
12 6 9
12 7 20
12 8 16
12 9 19
12 10 10
12 11 5
13 0 14
13 1 21
13 2 1
13 3 26
13 4 7
13 5 27
13 6 20
13 7 9
13 8 26
13 9 16
13 10 6
13 11 20
13 12 16
14 0 17
14 1 12
14 2 3
14 3 25
14 4 5
14 5 25
14 6 13
14 7 10
14 8 25
14 9 5
14 10 20
14 11 8
14 12 10
14 13 12
15 0 4
15 1 15
15 2 25
15 3 26
15 4 12
15 5 4
15 6 19
15 7 19
15 8 19
15 9 11
15 10 20
15 11 12
15 12 1
15 13 18
15 14 15
16 0 28
16 1 4
16 2 21
16 3 18
16 4 24
16 5 21
16 6 27
16 7 23
16 8 8
16 9 26
16 10 11
16 11 5
16 12 9
16 13 20
16 14 24
16 15 3
17 0 25
17 1 13
17 2 9
17 3 25
17 4 7
17 5 26
17 6 9
17 7 19
17 8 15
17 9 16
17 10 8
17 11 10
17 12 4
17 13 18
17 14 15
17 15 23
17 16 27
18 0 25
18 1 3
18 2 12
18 3 2
18 4 9
18 5 5
18 6 6
18 7 23
18 8 21
18 9 9
18 10 3
18 11 3
18 12 26
18 13 3
18 14 10
18 15 3
18 16 23
18 17 19
19 0 15
19 1 1
19 2 28
19 3 5
19 4 3
19 5 24
19 6 16
19 7 21
19 8 13
19 9 2
19 10 23
19 11 15
19 12 17
19 13 16
19 14 18
19 15 18
19 16 5
19 17 27
19 18 11
